(declare-const income Real)
(declare-const p375 Real)
(declare-const fee_bl Real)
(declare-const p475 Real)
(declare-const p599 Real)
(assert (= p375 (* 0.0375 (ite (> income 79900) 79900 income))))
(assert (= p475 (ite (> income 79900) (* 0.0475 (- (ite (> income 181650) 181650 income) 79900)) 0)))
(assert (= p599 (ite (> income 181650) (* 0.0599 (- income 181650)) 0)))
(assert (= fee_bl (+ (+ p375 p475) p599)))